WARNING: for repeatability, setting FPU to use double precision
============================[ Problem Statistics ]=============================
|                                                                             |
|  Number of variables:         14813                                         |
|  Number of clauses:           41003                                         |
|  Parse time:                   0.00 s                                       |
|                                                                             |
============================[ Search Statistics ]==============================
| Conflicts |          ORIGINAL         |          LEARNT          | Progress |
|           |    Vars  Clauses Literals |    Limit  Clauses Lit/Cl |          |
===============================================================================
===============================================================================
restarts              : 1
conflicts             : 32             (3225 /sec)
decisions             : 5363           (0.00 % random) (540571 /sec)
propagations          : 101347         (10215402 /sec)
conflict literals     : 350            (0.00 % deleted)
Memory used           : 8.00 MB
CPU time              : 0.009921 s

UNSATISFIABLE
